# Solution for model GasLib-40
# Objective value = 1.0537819795549423e+01
loadshed[innode_1] 0
loadshed[innode_2] 0
loadshed[innode_3] 0
loadshed[innode_4] 0
loadshed[innode_5] 0
loadshed[innode_6] 0
loadshed[innode_7] 0
loadshed[innode_8] 0
loadshed[source_1] -2.2880421068091583e-01
loadshed[source_2] 1.0282084857132157e-01
loadshed[source_3] 1.9264033775446443e-01
loadshed[sink_1] 0
loadshed[sink_2] 0
loadshed[sink_3] 0
loadshed[sink_4] 0
loadshed[sink_5] 0
loadshed[sink_6] 0
loadshed[sink_7] 0
loadshed[sink_8] 0
loadshed[sink_9] 0
loadshed[sink_10] 0
loadshed[sink_11] 0
loadshed[sink_12] 0.644350764568627
loadshed[sink_13] 0
loadshed[sink_14] 0
loadshed[sink_15] 0
loadshed[sink_16] 0
loadshed[sink_17] 0
loadshed[sink_18] 0
loadshed[sink_19] 0
loadshed[sink_20] 0
loadshed[sink_21] 0
loadshed[sink_22] 0
loadshed[sink_23] 0
loadshed[sink_24] 0
loadshed[sink_25] 0
loadshed[sink_26] 0
loadshed[sink_27] 0
loadshed[sink_28] 0
loadshed[sink_29] 0
flow[source_1,sink_3] 1.9426199900104893e+02
flow[innode_1,sink_16] 1.6354166666666970e+01
flow[innode_6,sink_13] -1.3156546604302392e+01
flow[sink_13,sink_14] -2.9510713270969060e+01
flow[sink_14,sink_10] -4.5864879937635727e+01
flow[sink_25,sink_26] 163.105824158308
flow[sink_26,sink_9] 1.3039749082497192e+02
flow[sink_9,sink_18] 1.1404332415830525e+02
flow[sink_26,sink_4] 16.3541666666693
flow[sink_4,sink_20] 0
flow[sink_18,sink_6] 9.7689157491638582e+01
flow[sink_25,innode_8] -1.6155366566771255e+02
flow[sink_6,sink_7] 4.8626657491638070e+01
flow[sink_6,sink_22] 3.2708333333333641e+01
flow[sink_7,sink_24] 3.8524680204450583e+01
flow[sink_22,sink_1] 1.6354166666666970e+01
flow[sink_24,sink_21] 2.2170513537783911e+01
flow[sink_21,sink_12] 5.8163468711172452e+00
flow[sink_7,sink_5] -6.2521893794787786e+00
flow[sink_5,sink_17] -2.2606356046145379e+01
flow[sink_17,sink_4] 0
flow[sink_17,sink_8] -3.8960522712812050e+01
flow[sink_3,sink_23] 16.3541666666697
flow[sink_8,sink_20] -5.5314689379478715e+01
flow[sink_25,sink_20] 71.6688560461453
flow[sink_25,sink_15] -7.6418634599104578e+01
flow[sink_15,sink_29] -9.2772801265771250e+01
flow[sink_29,sink_28] 1.6354166666667879e+01
flow[sink_29,sink_2] 1.6354166666684250e+01
flow[sink_2,sink_15] 0
flow[sink_29,innode_7] -1.4183530126579072e+02
flow[innode_4,sink_19] 4.9827317869466370e+01
flow[sink_19,innode_3] 4.6324160721313504e+01
flow[innode_4,innode_5] 7.7808395401503191e+01
flow[sink_27,innode_5] -7.7808395401503191e+01
flow[sink_27,sink_19] 6.1454228734836526e+01
flow[sink_10,sink_11] 3.2708333333333641e+01
flow[sink_10,innode_2] -4.8603219216322529e+01
flow[sink_10,innode_3] -4.6324160721313504e+01
flow[innode_6,sink_25] 1.3156546604302392e+01
flow[sink_11,innode_1] 1.6354166666666970e+01
flow[sink_19,innode_2] 4.8603219216322529e+01
flow[source_3,innode_4] 1.2763571327096956e+02
flow[source_2,innode_7] 1.4183530126579072e+02
flow[sink_3,innode_8] 1.6155366566771255e+02
pressure[innode_1] 7.6274036211322411e+01
pressure[innode_2] 7.8994618392378371e+01
pressure[innode_3] 7.8892038784103164e+01
pressure[innode_4] 81.01325
pressure[innode_5] 8.0959729282793447e+01
pressure[innode_6] 7.4131051320941708e+01
pressure[innode_7] 81.01325
pressure[innode_8] 8.0363906348112948e+01
pressure[source_1] 81.01325
pressure[source_2] 81.01325
pressure[source_3] 81.01325
pressure[sink_1] 4.6002881189805805e+01
pressure[sink_2] 7.6805441831830777e+01
pressure[sink_3] 8.0363906348112948e+01
pressure[sink_4] 6.0564292835737476e+01
pressure[sink_5] 5.0036667371973614e+01
pressure[sink_6] 4.8103958800193176e+01
pressure[sink_7] 4.7436430701241555e+01
pressure[sink_8] 5.3190759232880083e+01
pressure[sink_9] 5.4838977539676520e+01
pressure[sink_10] 7.6425737518925956e+01
pressure[sink_11] 7.6274036211322411e+01
pressure[sink_12] 1.0132500000000002e+00
pressure[sink_13] 7.4203581163708037e+01
pressure[sink_14] 7.4256393098863470e+01
pressure[sink_15] 7.4501756162733486e+01
pressure[sink_16] 7.5252386376504731e+01
pressure[sink_17] 5.1720677493976638e+01
pressure[sink_18] 5.0712550164065483e+01
pressure[sink_19] 7.8994618392378371e+01
pressure[sink_20] 5.7045415177160422e+01
pressure[sink_21] 3.0830245466477364e+00
pressure[sink_22] 4.7066650332160819e+01
pressure[sink_23] 8.0199188336453162e+01
pressure[sink_24] 3.3285423852149481e+00
pressure[sink_25] 7.4131051320941708e+01
pressure[sink_26] 6.2643603912210672e+01
pressure[sink_27] 8.0314063375416467e+01
pressure[sink_28] 7.6924429056677255e+01
pressure[sink_29] 7.7219711330294430e+01
interdiction[source_1,sink_3] 0
interdiction[innode_1,sink_16] 0
interdiction[innode_6,sink_13] 0
interdiction[sink_13,sink_14] 0
interdiction[sink_14,sink_10] 0
interdiction[sink_25,sink_26] 0
interdiction[sink_26,sink_9] 0
interdiction[sink_9,sink_18] 0
interdiction[sink_26,sink_4] 0
interdiction[sink_4,sink_20] 1
interdiction[sink_18,sink_6] 0
interdiction[sink_25,innode_8] 0
interdiction[sink_6,sink_7] 0
interdiction[sink_6,sink_22] 0
interdiction[sink_7,sink_24] 0
interdiction[sink_22,sink_1] 0
interdiction[sink_24,sink_21] 0
interdiction[sink_21,sink_12] 0
interdiction[sink_7,sink_5] 0
interdiction[sink_5,sink_17] 0
interdiction[sink_17,sink_4] 1
interdiction[sink_17,sink_8] 0
interdiction[sink_3,sink_23] 0
interdiction[sink_8,sink_20] 0
interdiction[sink_25,sink_20] 0
interdiction[sink_25,sink_15] 0
interdiction[sink_15,sink_29] 0
interdiction[sink_29,sink_28] 0
interdiction[sink_29,sink_2] 0
interdiction[sink_2,sink_15] 1
interdiction[sink_29,innode_7] 0
interdiction[innode_4,sink_19] 0
interdiction[sink_19,innode_3] 0
interdiction[innode_4,innode_5] 0
interdiction[sink_27,innode_5] 0
interdiction[sink_27,sink_19] 0
interdiction[sink_10,sink_11] 0
interdiction[sink_10,innode_2] 0
interdiction[sink_10,innode_3] 0
interdiction[innode_6,sink_25] 0
interdiction[sink_11,innode_1] 0
interdiction[sink_19,innode_2] 0
interdiction[source_3,innode_4] 0
interdiction[source_2,innode_7] 0
interdiction[sink_3,innode_8] 0
WCcheckFlow[source_1,sink_3] 39
WCcheckFlow[innode_1,sink_16] 1
WCcheckFlow[innode_6,sink_13] 13
WCcheckFlow[sink_13,sink_14] 12
WCcheckFlow[sink_14,sink_10] 11
WCcheckFlow[sink_25,sink_26] 15
WCcheckFlow[sink_26,sink_9] 13
WCcheckFlow[sink_9,sink_18] 12
WCcheckFlow[sink_26,sink_4] 1
WCcheckFlow[sink_4,sink_20] 0
WCcheckFlow[sink_18,sink_6] 11
WCcheckFlow[sink_25,innode_8] -36
WCcheckFlow[sink_6,sink_7] 8
WCcheckFlow[sink_6,sink_22] 2
WCcheckFlow[sink_7,sink_24] 3
WCcheckFlow[sink_22,sink_1] 1
WCcheckFlow[sink_24,sink_21] 2
WCcheckFlow[sink_21,sink_12] 1
WCcheckFlow[sink_7,sink_5] 4
WCcheckFlow[sink_5,sink_17] 3
WCcheckFlow[sink_17,sink_4] 0
WCcheckFlow[sink_17,sink_8] 2
WCcheckFlow[sink_3,sink_23] 1
WCcheckFlow[sink_8,sink_20] 1
WCcheckFlow[sink_25,sink_20] 0
WCcheckFlow[sink_25,sink_15] 6
WCcheckFlow[sink_15,sink_29] 5
WCcheckFlow[sink_29,sink_28] 1
WCcheckFlow[sink_29,sink_2] 1
WCcheckFlow[sink_2,sink_15] 0
WCcheckFlow[sink_29,innode_7] 2
WCcheckFlow[innode_4,sink_19] -4
WCcheckFlow[sink_19,innode_3] -5
WCcheckFlow[innode_4,innode_5] 2
WCcheckFlow[sink_27,innode_5] -1
WCcheckFlow[sink_27,sink_19] 0
WCcheckFlow[sink_10,sink_11] 3
WCcheckFlow[sink_10,innode_2] 1
WCcheckFlow[sink_10,innode_3] 6
WCcheckFlow[innode_6,sink_25] -14
WCcheckFlow[sink_11,innode_1] 2
WCcheckFlow[sink_19,innode_2] 0
WCcheckFlow[source_3,innode_4] -1
WCcheckFlow[source_2,innode_7] -1
WCcheckFlow[sink_3,innode_8] 37
